
  22   10
  10   10   10   10   10   10   10   10   10   10

   0   0   0   0   0   0   0   0   0   0   0  12 2 3 4 5 6 7 16 17 18 19 20 21 
   4   0   0   0   0  10   0   0   0   0   0   4 15 14 11 9 
   7   0   0   0   0   0   0   0   0   0  10   4 13 11 9 8 
   1   0  10   0   0   0   0   0   0   0   0   2 12 8 
   5   0   0   0   0   0   0   0  10   0   0   2 10 9 
   3  10   0   0   0   0   0   0   0   0   0   2 10 8 
   4   0   0   0   0   0   0   0   0  10   0   1 8 
   2   0   0   0   0   0   0   0  10   0   0   1 22
   2   0   0   0   0   0   0  10   0   0   0   1 22
  10   0   0   0   0   0   0   0   0  10   0   1 22
   4   0   0   0   0   0   0  10   0   0   0   1 22
   9   0   0   0   0   0   0   0  10   0   0   1 22
   7   0   0   0  10   0   0   0   0   0   0   1 22
   4   0   0   0   0  10   0   0   0   0   0   1 22
   9   0   0  10   0   0   0   0   0   0   0   1 22
   9   0  10   0   0   0   0   0   0   0   0   1 22
   7   0   0   0  10   0   0   0   0   0   0   1 22
   4   0   0   0  10   0   0   0   0   0   0   1 22
   7  10   0   0   0   0   0   0   0   0   0   1 22
   8  10   0   0   0   0   0   0   0   0   0   1 22
   8   0   0   0   0   0  10   0   0   0   0   1 22
   0   0   0   0   0   0   0   0   0   0   0   0 
